
Gurobi 13.0.2 (win64) logging started Thu Jul 23 05:58:43 2026

Set parameter LogFile to value "E:\codes\ExactEBRP\results\gf_cplex_equivalent_gurobi_replica_round28\runs\stage2__moderate_seed4302__c3_replica__300s\external\native_logs\R.0.0.0.0.1.1.1.0.0_terminal_mip.gurobi.log"
Gurobi Optimizer version 13.0.2 build v13.0.2rc1 (win64 - Windows 10.0 (19045.2))

CPU model: 12th Gen Intel(R) Core(TM) i7-12700KF, instruction set [SSE2|AVX|AVX2]
Thread count: 12 physical cores, 20 logical processors, using up to 1 threads

Non-default parameters:
TimeLimit  227.7638214
MIPGap  0
MIPGapAbs  0
LogToConsole  0
Threads  1

Optimize a model with 11919 rows, 3378 columns and 67378 nonzeros (Min)
Model fingerprint: 0xf46114d9
Model has 21 linear objective coefficients
Variable types: 1686 continuous, 1692 integer (1492 binary)
Coefficient statistics:
  Matrix range     [3e-03, 2e+04]
  Objective range  [7e-03, 1e+00]
  Bounds range     [3e-03, 1e+02]
  RHS range        [3e-03, 5e+04]

Presolve removed 7469 rows and 1262 columns
Presolve time: 0.29s
Presolved: 4450 rows, 2116 columns, 36928 nonzeros
Variable types: 1037 continuous, 1079 integer (1005 binary)

Root relaxation: objective 3.264738e-03, 1372 iterations, 0.05 seconds (0.12 work units)

    Nodes    |    Current Node    |     Objective Bounds      |     Work
 Expl Unexpl |  Obj  Depth IntInf | Incumbent    BestBd   Gap | It/Node Time

     0     0    0.00326    0  179          -    0.00326      -     -    0s
     0     0    0.00326    0  221          -    0.00326      -     -    0s
     0     0    0.00326    0  215          -    0.00326      -     -    0s
     0     0 infeasible    0               - infeasible      -     -    1s

Cutting planes:
  Learned: 5
  Gomory: 3
  Cover: 6
  Implied bound: 76
  Clique: 10
  MIR: 42
  StrongCG: 3
  Flow cover: 47
  Zero half: 17
  Network: 8
  RLT: 13
  Relax-and-lift: 63
  BQP: 6

Explored 1 nodes (4856 simplex iterations) in 1.13 seconds (1.95 work units)
Thread count was 1 (of 20 available processors)

Solution count 0

Model is infeasible
Best objective -, best bound -, gap -

User-callback calls 1183, time in user-callback 0.00 sec
